files/upTests/_zothers/mutiMatixMatixTuple/0001.eprime
language ESSENCE' 1.0

find pain_tuple1: matrix indexed by [int(1, 2)] of int(1)
find pain_tuple2_tuple1: matrix indexed by [int(1, 2), int(1)] of int(12)
find pain_tuple2_tuple2: matrix indexed by [int(1, 2), int(1)] of int(13)
such that
    pain_tuple2_tuple1[1, 1] = 12,
    pain_tuple2_tuple1[2, 1] = 12,
    pain_tuple2_tuple2[1, 1] = 13,
    pain_tuple2_tuple2[2, 1] = 13,
    pain_tuple1[1] = 1,
    pain_tuple1[2] = 1
