files/upTests/_zothers/mutiMatixMatixTuple/0001.eprime.solution
language ESSENCE' 1.0
$ minion Nodes: 1
$ minion TotalTime: 0.001074
$ Savile Row TotalTime: 0.298
letting pain_tuple1 be [1, 1]
letting pain_tuple2_tuple1 be [[12], 
[12]]
letting pain_tuple2_tuple2 be [[13], 
[13]]
